12 66
1 2 5
1 3 2
1 4 5
1 5 5
1 6 2
1 7 2
1 8 1
1 9 2
1 10 1
1 11 2
1 12 5
2 3 4
2 4 5
2 5 1
2 6 2
2 7 4
2 8 2
2 9 1
2 10 2
2 11 3
2 12 1
3 4 3
3 5 5
3 6 1
3 7 1
3 8 1
3 9 5
3 10 4
3 11 3
3 12 2
4 5 3
4 6 1
4 7 3
4 8 3
4 9 1
4 10 5
4 11 5
4 12 2
5 6 3
5 7 3
5 8 1
5 9 1
5 10 1
5 11 5
5 12 4
6 7 4
6 8 3
6 9 1
6 10 5
6 11 2
6 12 2
7 8 5
7 9 3
7 10 1
7 11 4
7 12 1
8 9 1
8 10 4
8 11 2
8 12 4
9 10 4
9 11 4
9 12 5
10 11 1
10 12 2
11 12 2
